(set-option :produce-models true)
(set-logic QF_LRA)
(set-info :notes | Strip-packing problem.|)
(declare-fun x0 () Real)
(declare-fun y0 () Real)
(declare-fun x1 () Real)
(declare-fun y1 () Real)
(declare-fun x2 () Real)
(declare-fun y2 () Real)
(declare-fun x3 () Real)
(declare-fun y3 () Real)
(declare-fun x4 () Real)
(declare-fun y4 () Real)
(declare-fun x5 () Real)
(declare-fun y5 () Real)
(declare-fun x6 () Real)
(declare-fun y6 () Real)
(declare-fun x7 () Real)
(declare-fun y7 () Real)
(declare-fun x8 () Real)
(declare-fun y8 () Real)
(declare-fun z () Real)
(declare-fun c () Real)
(assert (and (= c z) (and (>= x0 0) 
(and (>= y0 0) 
(and (>= x1 0) 
(and (>= y1 0) 
(and (>= x2 0) 
(and (>= y2 0) 
(and (>= x3 0) 
(and (>= y3 0) 
(and (>= x4 0) 
(and (>= y4 0) 
(and (>= x5 0) 
(and (>= y5 0) 
(and (>= x6 0) 
(and (>= y6 0) 
(and (>= x7 0) 
(and (>= y7 0) 
(and (>= x8 0) 
(and (>= y8 0) 
(and (>= z 0) 
(and (>= c 0) 
(and (<= (+ x0 0.1565532609) z) 
(and (<= 0.78595423 y0) 
(and (<= y0 1.0) 
(and (<= x0 (- 3.4777651371 0.1565532609)) 
(and (>= x0 0) 
(and (<= (+ x1 0.7443163318) z) 
(and (<= 0.6940990197 y1) 
(and (<= y1 1.0) 
(and (<= x1 (- 3.4777651371 0.7443163318)) 
(and (>= x1 0) 
(and (<= (+ x2 0.1677594766) z) 
(and (<= 0.4876809495 y2) 
(and (<= y2 1.0) 
(and (<= x2 (- 3.4777651371 0.1677594766)) 
(and (>= x2 0) 
(and (<= (+ x3 0.5759198435) z) 
(and (<= 0.411485986 y3) 
(and (<= y3 1.0) 
(and (<= x3 (- 3.4777651371 0.5759198435)) 
(and (>= x3 0) 
(and (<= (+ x4 0.2055391822) z) 
(and (<= 0.3750200397 y4) 
(and (<= y4 1.0) 
(and (<= x4 (- 3.4777651371 0.2055391822)) 
(and (>= x4 0) 
(and (<= (+ x5 0.1282918878) z) 
(and (<= 0.3635382542 y5) 
(and (<= y5 1.0) 
(and (<= x5 (- 3.4777651371 0.1282918878)) 
(and (>= x5 0) 
(and (<= (+ x6 0.8756083505) z) 
(and (<= 0.3133226951 y6) 
(and (<= y6 1.0) 
(and (<= x6 (- 3.4777651371 0.8756083505)) 
(and (>= x6 0) 
(and (<= (+ x7 0.6230376976) z) 
(and (<= 0.0732114923 y7) 
(and (<= y7 1.0) 
(and (<= x7 (- 3.4777651371 0.6230376976)) 
(and (>= x7 0) 
(and (<= (+ x8 0.9576078738) z) 
(and (<= 0.0470279399 y8) 
(and (<= y8 1.0) 
(and (<= x8 (- 3.4777651371 0.9576078738)) 
(and (>= x8 0) 
(and (<= c 3.4777651371) 
(and (or (<= (+ x0 0.1565532609) x1) (or (<= (+ x1 0.7443163318) x0) (or (>= (- y0 0.78595423) y1) (or (>= (- y1 0.6940990197) y0))))) 
(and (or (<= (+ x0 0.1565532609) x2) (or (<= (+ x2 0.1677594766) x0) (or (>= (- y0 0.78595423) y2) (or (>= (- y2 0.4876809495) y0))))) 
(and (or (<= (+ x0 0.1565532609) x3) (or (<= (+ x3 0.5759198435) x0) (or (>= (- y0 0.78595423) y3) (or (>= (- y3 0.411485986) y0))))) 
(and (or (<= (+ x0 0.1565532609) x4) (or (<= (+ x4 0.2055391822) x0) (or (>= (- y0 0.78595423) y4) (or (>= (- y4 0.3750200397) y0))))) 
(and (or (<= (+ x0 0.1565532609) x5) (or (<= (+ x5 0.1282918878) x0) (or (>= (- y0 0.78595423) y5) (or (>= (- y5 0.3635382542) y0))))) 
(and (or (<= (+ x0 0.1565532609) x6) (or (<= (+ x6 0.8756083505) x0) (or (>= (- y0 0.78595423) y6) (or (>= (- y6 0.3133226951) y0))))) 
(and (or (<= (+ x0 0.1565532609) x7) (or (<= (+ x7 0.6230376976) x0) (or (>= (- y0 0.78595423) y7) (or (>= (- y7 0.0732114923) y0))))) 
(and (or (<= (+ x0 0.1565532609) x8) (or (<= (+ x8 0.9576078738) x0) (or (>= (- y0 0.78595423) y8) (or (>= (- y8 0.0470279399) y0))))) 
(and (or (<= (+ x1 0.7443163318) x2) (or (<= (+ x2 0.1677594766) x1) (or (>= (- y1 0.6940990197) y2) (or (>= (- y2 0.4876809495) y1))))) 
(and (or (<= (+ x1 0.7443163318) x3) (or (<= (+ x3 0.5759198435) x1) (or (>= (- y1 0.6940990197) y3) (or (>= (- y3 0.411485986) y1))))) 
(and (or (<= (+ x1 0.7443163318) x4) (or (<= (+ x4 0.2055391822) x1) (or (>= (- y1 0.6940990197) y4) (or (>= (- y4 0.3750200397) y1))))) 
(and (or (<= (+ x1 0.7443163318) x5) (or (<= (+ x5 0.1282918878) x1) (or (>= (- y1 0.6940990197) y5) (or (>= (- y5 0.3635382542) y1))))) 
(and (or (<= (+ x1 0.7443163318) x6) (or (<= (+ x6 0.8756083505) x1) (or (>= (- y1 0.6940990197) y6) (or (>= (- y6 0.3133226951) y1))))) 
(and (or (<= (+ x1 0.7443163318) x7) (or (<= (+ x7 0.6230376976) x1) (or (>= (- y1 0.6940990197) y7) (or (>= (- y7 0.0732114923) y1))))) 
(and (or (<= (+ x1 0.7443163318) x8) (or (<= (+ x8 0.9576078738) x1) (or (>= (- y1 0.6940990197) y8) (or (>= (- y8 0.0470279399) y1))))) 
(and (or (<= (+ x2 0.1677594766) x3) (or (<= (+ x3 0.5759198435) x2) (or (>= (- y2 0.4876809495) y3) (or (>= (- y3 0.411485986) y2))))) 
(and (or (<= (+ x2 0.1677594766) x4) (or (<= (+ x4 0.2055391822) x2) (or (>= (- y2 0.4876809495) y4) (or (>= (- y4 0.3750200397) y2))))) 
(and (or (<= (+ x2 0.1677594766) x5) (or (<= (+ x5 0.1282918878) x2) (or (>= (- y2 0.4876809495) y5) (or (>= (- y5 0.3635382542) y2))))) 
(and (or (<= (+ x2 0.1677594766) x6) (or (<= (+ x6 0.8756083505) x2) (or (>= (- y2 0.4876809495) y6) (or (>= (- y6 0.3133226951) y2))))) 
(and (or (<= (+ x2 0.1677594766) x7) (or (<= (+ x7 0.6230376976) x2) (or (>= (- y2 0.4876809495) y7) (or (>= (- y7 0.0732114923) y2))))) 
(and (or (<= (+ x2 0.1677594766) x8) (or (<= (+ x8 0.9576078738) x2) (or (>= (- y2 0.4876809495) y8) (or (>= (- y8 0.0470279399) y2))))) 
(and (or (<= (+ x3 0.5759198435) x4) (or (<= (+ x4 0.2055391822) x3) (or (>= (- y3 0.411485986) y4) (or (>= (- y4 0.3750200397) y3))))) 
(and (or (<= (+ x3 0.5759198435) x5) (or (<= (+ x5 0.1282918878) x3) (or (>= (- y3 0.411485986) y5) (or (>= (- y5 0.3635382542) y3))))) 
(and (or (<= (+ x3 0.5759198435) x6) (or (<= (+ x6 0.8756083505) x3) (or (>= (- y3 0.411485986) y6) (or (>= (- y6 0.3133226951) y3))))) 
(and (or (<= (+ x3 0.5759198435) x7) (or (<= (+ x7 0.6230376976) x3) (or (>= (- y3 0.411485986) y7) (or (>= (- y7 0.0732114923) y3))))) 
(and (or (<= (+ x3 0.5759198435) x8) (or (<= (+ x8 0.9576078738) x3) (or (>= (- y3 0.411485986) y8) (or (>= (- y8 0.0470279399) y3))))) 
(and (or (<= (+ x4 0.2055391822) x5) (or (<= (+ x5 0.1282918878) x4) (or (>= (- y4 0.3750200397) y5) (or (>= (- y5 0.3635382542) y4))))) 
(and (or (<= (+ x4 0.2055391822) x6) (or (<= (+ x6 0.8756083505) x4) (or (>= (- y4 0.3750200397) y6) (or (>= (- y6 0.3133226951) y4))))) 
(and (or (<= (+ x4 0.2055391822) x7) (or (<= (+ x7 0.6230376976) x4) (or (>= (- y4 0.3750200397) y7) (or (>= (- y7 0.0732114923) y4))))) 
(and (or (<= (+ x4 0.2055391822) x8) (or (<= (+ x8 0.9576078738) x4) (or (>= (- y4 0.3750200397) y8) (or (>= (- y8 0.0470279399) y4))))) 
(and (or (<= (+ x5 0.1282918878) x6) (or (<= (+ x6 0.8756083505) x5) (or (>= (- y5 0.3635382542) y6) (or (>= (- y6 0.3133226951) y5))))) 
(and (or (<= (+ x5 0.1282918878) x7) (or (<= (+ x7 0.6230376976) x5) (or (>= (- y5 0.3635382542) y7) (or (>= (- y7 0.0732114923) y5))))) 
(and (or (<= (+ x5 0.1282918878) x8) (or (<= (+ x8 0.9576078738) x5) (or (>= (- y5 0.3635382542) y8) (or (>= (- y8 0.0470279399) y5))))) 
(and (or (<= (+ x6 0.8756083505) x7) (or (<= (+ x7 0.6230376976) x6) (or (>= (- y6 0.3133226951) y7) (or (>= (- y7 0.0732114923) y6))))) 
(and (or (<= (+ x6 0.8756083505) x8) (or (<= (+ x8 0.9576078738) x6) (or (>= (- y6 0.3133226951) y8) (or (>= (- y8 0.0470279399) y6))))) 
(and (or (<= (+ x7 0.6230376976) x8) (or (<= (+ x8 0.9576078738) x7) (or (>= (- y7 0.0732114923) y8) (or (>= (- y8 0.0470279399) y7))))) ))))))))))))))))))))))))))))))))))))))))))))))))))))))))))))))))))))))))))))))))))))))))))))))))))))))))
(minimize c)
(check-sat)
(get-objectives)
(exit)
